53
3 94 12 9 
3 61 92 54 
3 88 15 57 
3 65 78 102 
3 23 31 81 
3 51 118 27 
2 11 37 
3 25 29 30 
2 113 63 
3 72 97 14 
2 84 28 
2 4 41 
2 48 73 
2 70 18 
2 19 107 
3 98 83 46 
3 105 1 34 
3 74 75 114 
3 76 69 58 
2 79 22 
3 59 5 99 
3 87 106 50 
2 120 86 
3 82 8 6 
2 24 116 
2 13 3 
2 49 56 
3 111 90 101 
2 66 60 
3 100 7 71 
2 95 96 
2 108 67 
2 91 103 
2 20 35 
2 38 17 
2 21 44 
2 68 119 
2 109 39 
3 112 62 26 
1 110 
2 77 32 
2 89 85 
2 52 45 
2 40 104 
1 64 
3 43 80 10 
1 33 
2 16 47 
1 36 
1 53 
2 55 42 
2 93 117 
2 2 115 
